55
16
30
12
5
70
71
41
93
4
38
37
24
2
51
85
36
14
94
73
48
68
65
11
95
96
62
67
87
21
39
74
57
19
61
6
79
42
44
13
54
50
31
53
47
64
92
25
86
91
84
56
88
7
75
49
29
28
45
81
83
8
32
90
78
80
9
60
0
35
52
34
76
46
22
66
63
99
3
18
1
89
97
82
43
26
27
59
10
15
77
40
98
17
72
33
58
69
23
20
